p cnf 137 467
-3 1 0
-3 2 0
-1 -2 3 0
2 4 -5 0
-2 -4 -5 0
2 -4 5 0
-2 4 5 0
-5 6 -7 0
5 -6 -7 0
-5 -6 7 0
5 6 7 0
-10 -8 0
-10 9 0
8 -9 10 0
10 -11 -12 0
-10 11 -12 0
10 11 12 0
-10 -11 12 0
-16 14 0
-16 15 0
-14 -15 16 0
-17 -13 0
-17 -16 0
13 16 17 0
-18 -12 0
-18 -17 0
12 17 18 0
19 -20 -21 0
-19 20 -21 0
19 20 21 0
-19 -20 21 0
17 8 -22 0
-17 -8 -22 0
17 -8 22 0
-17 8 22 0
23 22 0
23 -17 0
-22 17 -23 0
-24 -20 0
-24 -23 0
20 23 24 0
21 24 -25 0
-21 -24 -25 0
21 -24 25 0
-21 24 25 0
-16 -25 -26 0
16 25 -26 0
-16 25 26 0
16 -25 26 0
-18 -26 -27 0
18 26 -27 0
-18 26 27 0
18 -26 27 0
28 -7 0
28 -27 0
7 27 -28 0
-30 29 0
-30 -11 0
-29 11 30 0
31 30 0
31 15 0
-30 -15 -31 0
-31 -24 -32 0
31 24 -32 0
-31 24 32 0
31 -24 32 0
-2 -9 -33 0
2 9 -33 0
-2 9 33 0
2 -9 33 0
-34 33 0
-34 -10 0
-33 10 34 0
-35 -19 0
-35 9 0
19 -9 35 0
36 15 0
36 -35 0
-15 35 -36 0
-37 -36 0
-37 16 0
36 -16 37 0
33 37 -38 0
-33 -37 -38 0
33 -37 38 0
-33 37 38 0
-39 -22 0
-39 -10 0
22 10 39 0
-38 39 -40 0
38 -39 -40 0
-38 -39 40 0
38 39 40 0
38 36 -41 0
-38 -36 -41 0
38 -36 41 0
-38 36 41 0
-40 -41 -42 0
40 41 -42 0
-40 41 42 0
40 -41 42 0
43 44 0
-43 44 0
-45 16 0
-45 -1 0
-16 1 45 0
46 -43 0
46 45 0
43 -45 -46 0
12 -17 -47 0
-12 17 -47 0
12 17 47 0
-12 -17 47 0
48 -46 0
48 -47 0
46 47 -48 0
-49 44 0
-49 48 0
-44 -48 49 0
-42 -49 -50 0
42 49 -50 0
-42 49 50 0
42 -49 50 0
51 -34 0
51 -50 0
34 50 -51 0
-32 51 -52 0
32 -51 -52 0
-32 -51 52 0
32 51 52 0
53 -23 0
53 -19 0
23 19 -53 0
5 -53 -54 0
-5 53 -54 0
5 53 54 0
-5 -53 54 0
-55 -43 0
-55 -12 0
43 12 55 0
29 -55 -56 0
-29 55 -56 0
29 55 56 0
-29 -55 56 0
57 -23 0
57 11 0
23 -11 -57 0
-55 57 -58 0
55 -57 -58 0
-55 -57 58 0
55 57 58 0
59 12 0
59 -11 0
-12 11 -59 0
60 15 0
60 -19 0
-15 19 -60 0
-61 -59 0
-61 60 0
59 -60 61 0
62 -55 0
62 -37 0
55 37 -62 0
-63 -62 0
-63 -37 0
62 37 63 0
-64 -63 0
-64 19 0
63 -19 64 0
65 -61 0
65 -64 0
61 64 -65 0
-58 65 -66 0
58 -65 -66 0
-58 -65 66 0
58 65 66 0
-67 56 0
-67 66 0
-56 -66 67 0
68 -39 0
68 -24 0
39 24 -68 0
69 -15 0
69 -17 0
15 17 -69 0
-70 -13 0
-70 -69 0
13 69 70 0
71 68 0
71 70 0
-68 -70 -71 0
72 -67 0
72 71 0
67 -71 -72 0
73 54 0
73 72 0
-54 -72 -73 0
-74 9 0
-74 -11 0
-9 11 74 0
75 -74 0
75 24 0
74 -24 -75 0
76 -75 0
76 5 0
75 -5 -76 0
-77 -76 0
-77 -53 0
76 53 77 0
-9 -15 -78 0
9 15 -78 0
-9 15 78 0
9 -15 78 0
-78 43 -79 0
78 -43 -79 0
-78 -43 79 0
78 43 79 0
77 -79 -80 0
-77 79 -80 0
77 79 80 0
-77 -79 80 0
81 78 0
81 -36 0
-78 36 -81 0
82 -80 0
82 81 0
80 -81 -82 0
-83 -73 0
-83 -82 0
73 82 83 0
-84 52 0
-84 83 0
-52 -83 84 0
-85 -28 0
-85 -84 0
28 84 85 0
-4 17 -86 0
4 -17 -86 0
-4 -17 86 0
4 17 86 0
-87 -86 0
-87 -23 0
86 23 87 0
-22 -9 -88 0
22 9 -88 0
-22 9 88 0
22 -9 88 0
89 -19 0
89 88 0
19 -88 -89 0
90 -45 0
90 -89 0
45 89 -90 0
-91 35 0
-91 -22 0
-35 22 91 0
-92 -31 0
-92 91 0
31 -91 92 0
-90 -92 -93 0
90 92 -93 0
-90 92 93 0
90 -92 93 0
94 -87 0
94 -93 0
87 93 -94 0
95 85 0
95 -94 0
-85 94 -95 0
-96 3 0
-96 -95 0
-3 95 96 0
98 97 0
98 -91 0
-97 91 -98 0
39 -6 -99 0
-39 6 -99 0
39 6 99 0
-39 -6 99 0
100 10 0
100 -12 0
-10 12 -100 0
99 -100 -101 0
-99 100 -101 0
99 100 101 0
-99 -100 101 0
102 -15 0
102 47 0
15 -47 -102 0
-14 102 -103 0
14 -102 -103 0
-14 -102 103 0
14 102 103 0
-104 -43 0
-104 -38 0
43 38 104 0
105 76 0
105 -5 0
-76 5 -105 0
-106 -53 0
-106 -68 0
53 68 106 0
105 106 -107 0
-105 -106 -107 0
105 -106 107 0
-105 106 107 0
-108 -104 0
-108 107 0
104 -107 108 0
-109 103 0
-109 108 0
-103 -108 109 0
110 -101 0
110 109 0
101 -109 -110 0
-111 9 -112 0
111 -9 -112 0
-111 -9 112 0
111 9 112 0
113 17 0
113 19 0
-17 -19 -113 0
-114 -2 0
-114 -113 0
2 113 114 0
115 43 0
115 -8 0
-43 8 -115 0
-116 -115 0
-116 20 0
115 -20 116 0
-117 114 0
-117 116 0
-114 -116 117 0
-118 112 0
-118 117 0
-112 -117 118 0
-119 -110 0
-119 -118 0
110 118 119 0
98 119 -120 0
-98 -119 -120 0
98 -119 120 0
-98 119 120 0
-96 -120 -121 0
96 120 -121 0
-96 120 121 0
96 -120 121 0
122 -46 0
122 53 0
46 -53 -122 0
14 122 -123 0
-14 -122 -123 0
14 -122 123 0
-14 122 123 0
-124 -47 0
-124 74 0
47 -74 124 0
123 124 -125 0
-123 -124 -125 0
123 -124 125 0
-123 124 125 0
-121 125 -126 0
121 -125 -126 0
-121 -125 126 0
121 125 126 0
-30 70 -127 0
30 -70 -127 0
-30 -70 127 0
30 70 127 0
-128 -29 0
-128 69 0
29 -69 128 0
78 -89 -129 0
-78 89 -129 0
78 89 129 0
-78 -89 129 0
130 -39 0
130 -129 0
39 129 -130 0
131 -128 0
131 130 0
128 -130 -131 0
-132 -127 0
-132 131 0
127 -131 132 0
-129 -6 -133 0
129 6 -133 0
-129 6 133 0
129 -6 133 0
-60 -59 -134 0
60 59 -134 0
-60 59 134 0
60 -59 134 0
135 -133 0
135 -134 0
133 134 -135 0
132 135 -136 0
-132 -135 -136 0
132 -135 136 0
-132 135 136 0
-126 136 -137 0
126 -136 -137 0
-126 -136 137 0
126 136 137 0
79 -29 0
6 -85 -111 0
3 -36 110 133 0
65 73 75 24 -67 0
-129 -125 120 27 -132 0
120 -41 -96 90 0
-13 60 -105 108 -65 0
-41 21 0
27 -9 0
54 52 -116 -67 69 0
19 -94 0
-32 116 -61 -135 104 0
18 91 120 10 134 0
-34 114 -58 0
-25 88 -71 132 66 -28 0
-45 -100 30 9 -25 0
-72 -49 33 44 -91 0
105 -87 -127 11 -65 0
-57 20 38 4 -100 101 0
-93 25 97 20 -113 0
-126 -5 -93 0
85 120 0
32 36 -125 -31 -110 0
119 -102 -70 26 57 0
-129 -7 25 4 23 -40 0
-118 -7 50 117 9 10 0
108 -34 -72 0
-54 123 114 -38 -90 0
126 67 77 118 93 0
-28 -130 0
-17 130 29 0
-24 116 96 -10 0
-45 114 -72 -107 16 95 0
47 127 -45 0
-99 108 116 0
7 119 85 0
-33 -56 -38 96 79 0
55 -72 -126 -102 -125 -57 0
-54 -127 -53 33 56 0
93 23 117 61 0
72 3 0
60 -30 -130 -102 -100 83 0
-38 122 0
115 -99 -117 102 58 -74 0
-1 25 -88 117 4 0
-83 -121 0
-23 75 -117 -107 0
109 -30 -130 0
83 -65 -101 31 -61 105 0
-111 70 -109 -12 -47 115 0
53 -30 -47 0
-14 56 0
101 71 0
50 23 0
-28 -22 0
-113 70 62 0
-101 62 -30 0
-2 80 88 -64 0
-66 -42 -12 -28 -49 -105 0
-58 112 -90 0
69 64 0
137 0
